(set-option :incremental false)
(set-logic ALL)
(declare-const BAV1 Bool)
(declare-const BAV2 Bool)
(declare-const GEN2 Int)
(declare-const GEN1 Int)
(declare-fun x () (_ BitVec 64))
(declare-fun y () (_ BitVec 32))
(declare-fun z () (_ BitVec 32))
(assert (= x (concat y z)))
(assert (= BAV1 (= x (concat y z))))
(assert (= BAV2 (= ((_ extract 31 0) x) z)))
(check-sat-assuming ((not (= ((_ extract 31 0) x) z))))
(get-model)